BAYES
225
2 2 2 2 2 2 2 2 2 2 2 2 2 2 2 2 2 2 2 2 2 2 2 2 2 2 2 2 2 2 2 2 2 2 2 2 2 2 2 2 2 2 2 2 2 2 2 2 2 2 2 2 2 2 2 2 2 2 2 2 2 2 2 2 2 2 2 2 2 2 2 2 2 2 2 2 2 2 2 2 2 2 2 2 2 2 2 2 2 2 2 2 2 2 2 2 2 2 2 2 2 2 2 2 2 2 2 2 2 2 2 2 2 2 2 2 2 2 2 2 2 2 2 2 2 2 2 2 2 2 2 2 2 2 2 2 2 2 2 2 2 2 2 2 2 2 2 2 2 2 2 2 2 2 2 2 2 2 2 2 2 2 2 2 2 2 2 2 2 2 2 2 2 2 2 2 2 2 2 2 2 2 2 2 2 2 2 2 2 2 2 2 2 2 2 2 2 2 2 2 2 2 2 2 2 2 2 2 2 2 2 2 2 2 2 2 2 2 2 2 2 2 2 2 2
225
1 0
2 0 1
2 1 2
2 2 3
2 3 4
2 4 5
2 5 6
2 6 7
2 7 8
2 8 9
2 9 10
2 10 11
2 11 12
2 12 13
2 13 14
2 0 15
3 1 15 16
3 2 16 17
3 3 17 18
3 4 18 19
3 5 19 20
3 6 20 21
3 7 21 22
3 8 22 23
3 9 23 24
3 10 24 25
3 11 25 26
3 12 26 27
3 13 27 28
3 14 28 29
2 15 30
3 16 30 31
3 17 31 32
3 18 32 33
3 19 33 34
3 20 34 35
3 21 35 36
3 22 36 37
3 23 37 38
3 24 38 39
3 25 39 40
3 26 40 41
3 27 41 42
3 28 42 43
3 29 43 44
2 30 45
3 31 45 46
3 32 46 47
3 33 47 48
3 34 48 49
3 35 49 50
3 36 50 51
3 37 51 52
3 38 52 53
3 39 53 54
3 40 54 55
3 41 55 56
3 42 56 57
3 43 57 58
3 44 58 59
2 45 60
3 46 60 61
3 47 61 62
3 48 62 63
3 49 63 64
3 50 64 65
3 51 65 66
3 52 66 67
3 53 67 68
3 54 68 69
3 55 69 70
3 56 70 71
3 57 71 72
3 58 72 73
3 59 73 74
2 60 75
3 61 75 76
3 62 76 77
3 63 77 78
3 64 78 79
3 65 79 80
3 66 80 81
3 67 81 82
3 68 82 83
3 69 83 84
3 70 84 85
3 71 85 86
3 72 86 87
3 73 87 88
3 74 88 89
2 75 90
3 76 90 91
3 77 91 92
3 78 92 93
3 79 93 94
3 80 94 95
3 81 95 96
3 82 96 97
3 83 97 98
3 84 98 99
3 85 99 100
3 86 100 101
3 87 101 102
3 88 102 103
3 89 103 104
2 90 105
3 91 105 106
3 92 106 107
3 93 107 108
3 94 108 109
3 95 109 110
3 96 110 111
3 97 111 112
3 98 112 113
3 99 113 114
3 100 114 115
3 101 115 116
3 102 116 117
3 103 117 118
3 104 118 119
2 105 120
3 106 120 121
3 107 121 122
3 108 122 123
3 109 123 124
3 110 124 125
3 111 125 126
3 112 126 127
3 113 127 128
3 114 128 129
3 115 129 130
3 116 130 131
3 117 131 132
3 118 132 133
3 119 133 134
2 120 135
3 121 135 136
3 122 136 137
3 123 137 138
3 124 138 139
3 125 139 140
3 126 140 141
3 127 141 142
3 128 142 143
3 129 143 144
3 130 144 145
3 131 145 146
3 132 146 147
3 133 147 148
3 134 148 149
2 135 150
3 136 150 151
3 137 151 152
3 138 152 153
3 139 153 154
3 140 154 155
3 141 155 156
3 142 156 157
3 143 157 158
3 144 158 159
3 145 159 160
3 146 160 161
3 147 161 162
3 148 162 163
3 149 163 164
2 150 165
3 151 165 166
3 152 166 167
3 153 167 168
3 154 168 169
3 155 169 170
3 156 170 171
3 157 171 172
3 158 172 173
3 159 173 174
3 160 174 175
3 161 175 176
3 162 176 177
3 163 177 178
3 164 178 179
2 165 180
3 166 180 181
3 167 181 182
3 168 182 183
3 169 183 184
3 170 184 185
3 171 185 186
3 172 186 187
3 173 187 188
3 174 188 189
3 175 189 190
3 176 190 191
3 177 191 192
3 178 192 193
3 179 193 194
2 180 195
3 181 195 196
3 182 196 197
3 183 197 198
3 184 198 199
3 185 199 200
3 186 200 201
3 187 201 202
3 188 202 203
3 189 203 204
3 190 204 205
3 191 205 206
3 192 206 207
3 193 207 208
3 194 208 209
2 195 210
3 196 210 211
3 197 211 212
3 198 212 213
3 199 213 214
3 200 214 215
3 201 215 216
3 202 216 217
3 203 217 218
3 204 218 219
3 205 219 220
3 206 220 221
3 207 221 222
3 208 222 223
3 209 223 224

2
0.233447 0.766553
4
0.0 1.0 1.0 0.0
4
0.0 1.0 1.0 0.0
4
0.844741 0.155259 0.703527 0.296473
4
1.0 0.0 0.0 1.0
4
0.0 1.0 1.0 0.0
4
0.0 1.0 1.0 0.0
4
1.0 0.0 0.0 1.0
4
0.758476 0.241524 0.416386 0.583614
4
0.0 1.0 1.0 0.0
4
1.0 0.0 0.0 1.0
4
0.981356 0.0186436 0.579444 0.420556
4
0.0 1.0 1.0 0.0
4
1.0 0.0 0.0 1.0
4
0.0 1.0 1.0 0.0
4
0.238724 0.761276 0.980983 0.0190171
8
1.0 0.0 0.0 1.0 0.0 1.0 0.0 1.0
8
0.0762808 0.923719 0.567118 0.432882 0.95023 0.0497698 0.780764 0.219236
8
0.783176 0.216824 0.608878 0.391122 0.628541 0.371459 0.199562 0.800438
8
0.246164 0.753836 0.43616 0.56384 0.0951565 0.904844 0.141642 0.858358
8
0.0 1.0 1.0 0.0 0.0 1.0 1.0 0.0
8
0.0 1.0 1.0 0.0 0.0 1.0 0.0 1.0
8
1.0 0.0 0.0 1.0 0.0 1.0 1.0 0.0
8
0.773586 0.226414 0.504162 0.495838 0.389256 0.610744 0.723816 0.276184
8
0.0 1.0 1.0 0.0 0.0 1.0 0.0 1.0
8
1.0 0.0 1.0 0.0 1.0 0.0 0.0 1.0
8
1.0 0.0 0.0 1.0 0.0 1.0 1.0 0.0
8
0.0 1.0 0.0 1.0 0.0 1.0 1.0 0.0
8
0.0 1.0 1.0 0.0 1.0 0.0 1.0 0.0
8
1.0 0.0 0.0 1.0 1.0 0.0 0.0 1.0
4
1.0 0.0 0.0 1.0
8
0.0 1.0 1.0 0.0 1.0 0.0 1.0 0.0
8
0.541858 0.458142 0.645102 0.354898 0.102671 0.897329 0.102088 0.897912
8
0.0 1.0 0.0 1.0 1.0 0.0 0.0 1.0
8
0.0 1.0 1.0 0.0 1.0 0.0 0.0 1.0
8
0.0 1.0 1.0 0.0 0.0 1.0 1.0 0.0
8
0.0 1.0 0.0 1.0 1.0 0.0 0.0 1.0
8
0.0 1.0 0.0 1.0 1.0 0.0 0.0 1.0
8
0.0 1.0 0.0 1.0 1.0 0.0 0.0 1.0
8
0.0 1.0 0.0 1.0 0.0 1.0 1.0 0.0
8
0.0 1.0 0.0 1.0 0.0 1.0 1.0 0.0
8
1.0 0.0 0.0 1.0 1.0 0.0 0.0 1.0
8
0.0 1.0 1.0 0.0 0.0 1.0 0.0 1.0
8
1.0 0.0 0.0 1.0 0.0 1.0 1.0 0.0
8
1.0 0.0 1.0 0.0 0.0 1.0 1.0 0.0
4
0.214181 0.785819 0.0485162 0.951484
8
1.0 0.0 1.0 0.0 1.0 0.0 0.0 1.0
8
0.0 1.0 1.0 0.0 0.0 1.0 1.0 0.0
8
1.0 0.0 1.0 0.0 0.0 1.0 1.0 0.0
8
1.0 0.0 1.0 0.0 0.0 1.0 1.0 0.0
8
1.0 0.0 0.0 1.0 1.0 0.0 1.0 0.0
8
1.0 0.0 0.0 1.0 0.0 1.0 1.0 0.0
8
1.0 0.0 1.0 0.0 1.0 0.0 0.0 1.0
8
1.0 0.0 0.0 1.0 0.0 1.0 0.0 1.0
8
1.0 0.0 1.0 0.0 0.0 1.0 0.0 1.0
8
1.0 0.0 1.0 0.0 0.0 1.0 1.0 0.0
8
1.0 0.0 0.0 1.0 1.0 0.0 0.0 1.0
8
0.0 1.0 0.0 1.0 1.0 0.0 0.0 1.0
8
0.0 1.0 1.0 0.0 1.0 0.0 1.0 0.0
8
0.0 1.0 0.0 1.0 0.0 1.0 1.0 0.0
4
1.0 0.0 0.0 1.0
8
1.0 0.0 0.0 1.0 1.0 0.0 0.0 1.0
8
0.0 1.0 1.0 0.0 0.0 1.0 1.0 0.0
8
1.0 0.0 0.0 1.0 1.0 0.0 1.0 0.0
8
1.0 0.0 1.0 0.0 0.0 1.0 0.0 1.0
8
0.0 1.0 0.0 1.0 1.0 0.0 0.0 1.0
8
1.0 0.0 0.0 1.0 1.0 0.0 0.0 1.0
8
0.893681 0.106319 0.955143 0.0448568 0.000443126 0.999557 0.756712 0.243288
8
1.0 0.0 0.0 1.0 1.0 0.0 1.0 0.0
8
1.0 0.0 0.0 1.0 1.0 0.0 0.0 1.0
8
1.0 0.0 0.0 1.0 1.0 0.0 1.0 0.0
8
0.295455 0.704545 0.0254008 0.974599 0.194046 0.805954 0.760646 0.239354
8
0.0 1.0 1.0 0.0 1.0 0.0 0.0 1.0
8
0.0 1.0 0.0 1.0 1.0 0.0 0.0 1.0
8
0.0 1.0 0.0 1.0 1.0 0.0 1.0 0.0
4
0.0 1.0 1.0 0.0
8
0.782025 0.217975 0.6426 0.3574 0.000591261 0.999409 0.243178 0.756822
8
0.725372 0.274628 0.411716 0.588284 0.262017 0.737983 0.655028 0.344972
8
0.0 1.0 1.0 0.0 1.0 0.0 1.0 0.0
8
0.871324 0.128676 0.0852032 0.914797 0.398955 0.601045 0.775481 0.224519
8
1.0 0.0 0.0 1.0 0.0 1.0 0.0 1.0
8
0.0 1.0 0.0 1.0 1.0 0.0 0.0 1.0
8
0.0 1.0 0.0 1.0 1.0 0.0 1.0 0.0
8
1.0 0.0 1.0 0.0 0.0 1.0 1.0 0.0
8
1.0 0.0 0.0 1.0 1.0 0.0 1.0 0.0
8
1.0 0.0 1.0 0.0 0.0 1.0 0.0 1.0
8
0.420206 0.579794 0.870303 0.129697 0.457813 0.542187 0.889244 0.110756
8
0.832778 0.167222 0.0224964 0.977504 0.240945 0.759055 0.97573 0.0242697
8
0.24926 0.75074 0.119273 0.880727 0.0962305 0.903769 0.17603 0.82397
8
0.666403 0.333597 0.364817 0.635183 0.512133 0.487867 0.943747 0.0562529
4
0.885151 0.114849 0.688909 0.311091
8
1.0 0.0 0.0 1.0 1.0 0.0 0.0 1.0
8
1.0 0.0 0.0 1.0 1.0 0.0 1.0 0.0
8
0.0 1.0 1.0 0.0 1.0 0.0 1.0 0.0
8
1.0 0.0 1.0 0.0 0.0 1.0 1.0 0.0
8
0.0 1.0 0.0 1.0 1.0 0.0 0.0 1.0
8
1.0 0.0 1.0 0.0 1.0 0.0 0.0 1.0
8
0.0 1.0 0.0 1.0 1.0 0.0 1.0 0.0
8
0.0 1.0 1.0 0.0 1.0 0.0 1.0 0.0
8
0.0 1.0 1.0 0.0 1.0 0.0 1.0 0.0
8
0.790675 0.209325 0.122041 0.877959 0.615238 0.384762 0.276682 0.723318
8
0.0 1.0 1.0 0.0 1.0 0.0 1.0 0.0
8
0.316826 0.683174 0.100557 0.899443 0.833445 0.166555 0.604391 0.395609
8
1.0 0.0 1.0 0.0 0.0 1.0 1.0 0.0
8
0.0 1.0 1.0 0.0 1.0 0.0 1.0 0.0
4
0.0 1.0 1.0 0.0
8
0.0 1.0 1.0 0.0 0.0 1.0 1.0 0.0
8
0.0 1.0 0.0 1.0 0.0 1.0 1.0 0.0
8
0.86815 0.13185 0.134269 0.865731 0.676753 0.323247 0.833721 0.166279
8
1.0 0.0 0.0 1.0 0.0 1.0 1.0 0.0
8
1.0 0.0 0.0 1.0 0.0 1.0 1.0 0.0
8
0.0 1.0 1.0 0.0 0.0 1.0 1.0 0.0
8
1.0 0.0 1.0 0.0 0.0 1.0 0.0 1.0
8
0.0 1.0 0.0 1.0 1.0 0.0 1.0 0.0
8
1.0 0.0 0.0 1.0 1.0 0.0 1.0 0.0
8
1.0 0.0 0.0 1.0 1.0 0.0 1.0 0.0
8
1.0 0.0 1.0 0.0 0.0 1.0 1.0 0.0
8
0.155219 0.844781 0.742317 0.257683 0.144703 0.855297 0.518403 0.481597
8
0.0 1.0 0.0 1.0 1.0 0.0 1.0 0.0
8
0.701074 0.298926 0.175479 0.824521 0.154431 0.845569 0.889236 0.110764
4
0.0 1.0 1.0 0.0
8
0.0347228 0.965277 0.462521 0.537479 0.787516 0.212484 0.732141 0.267859
8
0.0 1.0 0.0 1.0 0.0 1.0 1.0 0.0
8
0.0 1.0 0.0 1.0 1.0 0.0 0.0 1.0
8
1.0 0.0 1.0 0.0 0.0 1.0 1.0 0.0
8
0.0 1.0 0.0 1.0 1.0 0.0 0.0 1.0
8
1.0 0.0 1.0 0.0 0.0 1.0 0.0 1.0
8
1.0 0.0 1.0 0.0 1.0 0.0 0.0 1.0
8
0.756702 0.243298 0.332694 0.667306 0.757406 0.242594 0.587052 0.412948
8
1.0 0.0 1.0 0.0 1.0 0.0 0.0 1.0
8
1.0 0.0 1.0 0.0 0.0 1.0 0.0 1.0
8
1.0 0.0 0.0 1.0 1.0 0.0 0.0 1.0
8
1.0 0.0 0.0 1.0 1.0 0.0 0.0 1.0
8
0.567927 0.432073 0.925022 0.0749778 0.0199458 0.980054 0.972287 0.0277132
8
1.0 0.0 0.0 1.0 1.0 0.0 1.0 0.0
4
0.0 1.0 1.0 0.0
8
0.0 1.0 0.0 1.0 1.0 0.0 0.0 1.0
8
0.0 1.0 0.0 1.0 1.0 0.0 1.0 0.0
8
1.0 0.0 1.0 0.0 0.0 1.0 1.0 0.0
8
0.0 1.0 0.0 1.0 0.0 1.0 1.0 0.0
8
0.66231 0.33769 0.602019 0.397981 0.0644106 0.935589 0.577104 0.422896
8
1.0 0.0 1.0 0.0 0.0 1.0 1.0 0.0
8
0.374854 0.625146 0.344502 0.655498 0.851415 0.148585 0.494354 0.505646
8
0.271108 0.728892 0.503883 0.496117 0.104097 0.895903 0.222211 0.777789
8
0.0 1.0 1.0 0.0 0.0 1.0 1.0 0.0
8
0.0 1.0 0.0 1.0 0.0 1.0 1.0 0.0
8
0.0 1.0 1.0 0.0 1.0 0.0 0.0 1.0
8
0.0 1.0 1.0 0.0 1.0 0.0 1.0 0.0
8
1.0 0.0 0.0 1.0 0.0 1.0 1.0 0.0
8
1.0 0.0 0.0 1.0 0.0 1.0 1.0 0.0
4
0.0 1.0 1.0 0.0
8
0.0 1.0 0.0 1.0 1.0 0.0 0.0 1.0
8
0.589015 0.410985 0.32089 0.67911 0.874922 0.125078 0.271848 0.728152
8
0.0 1.0 1.0 0.0 1.0 0.0 1.0 0.0
8
0.0 1.0 0.0 1.0 1.0 0.0 1.0 0.0
8
1.0 0.0 1.0 0.0 1.0 0.0 0.0 1.0
8
1.0 0.0 0.0 1.0 1.0 0.0 0.0 1.0
8
0.48232 0.51768 0.651294 0.348706 0.586921 0.413079 0.018233 0.981767
8
1.0 0.0 1.0 0.0 0.0 1.0 0.0 1.0
8
0.517384 0.482616 0.873998 0.126002 0.435797 0.564203 0.435374 0.564626
8
0.0 1.0 0.0 1.0 0.0 1.0 1.0 0.0
8
0.0 1.0 0.0 1.0 0.0 1.0 1.0 0.0
8
0.0 1.0 0.0 1.0 1.0 0.0 1.0 0.0
8
1.0 0.0 0.0 1.0 0.0 1.0 0.0 1.0
8
0.762878 0.237122 0.24492 0.75508 0.363137 0.636863 0.693028 0.306972
4
0.0 1.0 1.0 0.0
8
0.0 1.0 1.0 0.0 1.0 0.0 0.0 1.0
8
1.0 0.0 1.0 0.0 1.0 0.0 0.0 1.0
8
1.0 0.0 0.0 1.0 0.0 1.0 0.0 1.0
8
0.0 1.0 1.0 0.0 0.0 1.0 1.0 0.0
8
0.0 1.0 1.0 0.0 0.0 1.0 1.0 0.0
8
1.0 0.0 0.0 1.0 1.0 0.0 1.0 0.0
8
0.923276 0.0767241 0.194953 0.805047 0.612128 0.387872 0.569061 0.430939
8
1.0 0.0 0.0 1.0 1.0 0.0 0.0 1.0
8
0.0 1.0 0.0 1.0 1.0 0.0 0.0 1.0
8
1.0 0.0 0.0 1.0 1.0 0.0 1.0 0.0
8
1.0 0.0 0.0 1.0 1.0 0.0 0.0 1.0
8
0.0 1.0 1.0 0.0 1.0 0.0 1.0 0.0
8
0.0 1.0 1.0 0.0 0.0 1.0 0.0 1.0
8
0.0 1.0 1.0 0.0 1.0 0.0 0.0 1.0
4
1.0 0.0 0.0 1.0
8
0.0 1.0 1.0 0.0 0.0 1.0 0.0 1.0
8
1.0 0.0 0.0 1.0 1.0 0.0 1.0 0.0
8
1.0 0.0 0.0 1.0 1.0 0.0 0.0 1.0
8
1.0 0.0 1.0 0.0 0.0 1.0 1.0 0.0
8
1.0 0.0 0.0 1.0 1.0 0.0 1.0 0.0
8
0.0 1.0 1.0 0.0 1.0 0.0 1.0 0.0
8
1.0 0.0 0.0 1.0 0.0 1.0 1.0 0.0
8
0.0 1.0 1.0 0.0 1.0 0.0 1.0 0.0
8
0.0 1.0 0.0 1.0 1.0 0.0 1.0 0.0
8
0.409681 0.590319 0.347759 0.652241 0.290513 0.709487 0.864736 0.135264
8
0.969258 0.0307419 0.811995 0.188005 0.029895 0.970105 0.201818 0.798182
8
0.0 1.0 1.0 0.0 1.0 0.0 1.0 0.0
8
1.0 0.0 0.0 1.0 0.0 1.0 1.0 0.0
8
0.0 1.0 1.0 0.0 1.0 0.0 1.0 0.0
4
1.0 0.0 0.0 1.0
8
0.781934 0.218066 0.334214 0.665786 0.601761 0.398239 0.683469 0.316531
8
1.0 0.0 0.0 1.0 1.0 0.0 1.0 0.0
8
0.420626 0.579374 0.913389 0.0866108 0.145059 0.854941 0.570599 0.429401
8
0.0 1.0 0.0 1.0 0.0 1.0 1.0 0.0
8
0.224438 0.775562 0.392589 0.607411 0.348005 0.651995 0.299748 0.700252
8
0.641816 0.358184 0.125339 0.874661 0.0357248 0.964275 0.141328 0.858672
8
1.0 0.0 0.0 1.0 1.0 0.0 0.0 1.0
8
0.0 1.0 0.0 1.0 0.0 1.0 1.0 0.0
8
0.0 1.0 1.0 0.0 0.0 1.0 1.0 0.0
8
0.0 1.0 1.0 0.0 1.0 0.0 0.0 1.0
8
0.0 1.0 1.0 0.0 0.0 1.0 1.0 0.0
8
0.0 1.0 1.0 0.0 0.0 1.0 1.0 0.0
8
1.0 0.0 0.0 1.0 0.0 1.0 1.0 0.0
8
0.0 1.0 1.0 0.0 0.0 1.0 0.0 1.0
4
0.0373064 0.962694 0.970257 0.0297433
8
0.0 1.0 1.0 0.0 0.0 1.0 0.0 1.0
8
1.0 0.0 0.0 1.0 0.0 1.0 1.0 0.0
8
0.750592 0.249408 0.374251 0.625749 0.969047 0.0309525 0.539923 0.460077
8
1.0 0.0 0.0 1.0 0.0 1.0 0.0 1.0
8
0.0 1.0 1.0 0.0 0.0 1.0 0.0 1.0
8
0.770495 0.229505 0.919074 0.0809256 0.90854 0.0914605 0.807801 0.192199
8
0.238639 0.761361 0.408517 0.591483 0.67888 0.32112 0.947788 0.0522118
8
0.965723 0.0342766 0.8393 0.1607 0.749261 0.250739 0.788146 0.211854
8
0.574102 0.425898 0.538738 0.461262 0.172431 0.827569 0.54315 0.45685
8
1.0 0.0 1.0 0.0 1.0 0.0 0.0 1.0
8
0.0 1.0 1.0 0.0 0.0 1.0 0.0 1.0
8
1.0 0.0 1.0 0.0 0.0 1.0 0.0 1.0
8
0.0 1.0 1.0 0.0 0.0 1.0 0.0 1.0
8
1.0 0.0 0.0 1.0 1.0 0.0 1.0 0.0